
Gurobi 7.0.2 (win64, Python) logging started 11/07/17 15:14:23


Gurobi 7.0.2 (win64, Python) logging started 11/07/17 15:18:00


Gurobi 7.0.2 (win64, Python) logging started 11/07/17 15:20:37


Gurobi 7.0.2 (win64, Python) logging started 11/07/17 15:27:09


Gurobi 7.0.2 (win64, Python) logging started 11/07/17 15:35:20


Gurobi 7.0.2 (win64, Python) logging started 11/07/17 15:39:04


Gurobi 7.0.2 (win64, Python) logging started 11/07/17 15:41:33


Gurobi 7.0.2 (win64, Python) logging started 11/07/17 15:45:47


Gurobi 7.0.2 (win64, Python) logging started 11/07/17 16:06:42


Gurobi 7.0.2 (win64, Python) logging started 11/07/17 16:10:16


Gurobi 7.0.2 (win64, Python) logging started 11/07/17 16:12:54


Gurobi 7.0.2 (win64, Python) logging started 11/07/17 23:49:49


Gurobi 7.0.2 (win64, Python) logging started 11/08/17 01:01:24


Gurobi 7.0.2 (win64, Python) logging started 11/08/17 12:16:30


Gurobi 7.0.2 (win64, Python) logging started 11/08/17 12:55:33


Gurobi 7.0.2 (win64, Python) logging started 11/08/17 20:17:49


Gurobi 7.0.2 (win64, Python) logging started 11/08/17 22:09:23


Gurobi 7.0.2 (win64, Python) logging started 11/08/17 22:11:34


Gurobi 7.0.2 (win64, Python) logging started 11/08/17 22:39:03

